
(set-logic HORN)
(define-fun Z_418 () Int 0)
(define-fun S_149 ((x Int)) Int (+ x 1))
(declare-datatypes ((Bool_77 0)) (((false_77) (true_77))))
(declare-fun diseqBool_33 (Bool_77 Bool_77) Bool)
(declare-fun isfalse_33 (Bool_77) Bool)
(declare-fun istrue_33 (Bool_77) Bool)
(assert (isfalse_33 false_77))
(assert (istrue_33 true_77))
(assert (diseqBool_33 false_77 true_77))
(assert (diseqBool_33 true_77 false_77))
(declare-fun and_77 (Bool_77 Bool_77 Bool_77) Bool)
(declare-fun or_77 (Bool_77 Bool_77 Bool_77) Bool)
(declare-fun hence_77 (Bool_77 Bool_77 Bool_77) Bool)
(declare-fun not_77 (Bool_77 Bool_77) Bool)
(assert (and_77 false_77 false_77 false_77))
(assert (and_77 false_77 true_77 false_77))
(assert (and_77 false_77 false_77 true_77))
(assert (and_77 true_77 true_77 true_77))
(assert (or_77 false_77 false_77 false_77))
(assert (or_77 true_77 true_77 false_77))
(assert (or_77 true_77 false_77 true_77))
(assert (or_77 true_77 true_77 true_77))
(assert (hence_77 true_77 false_77 false_77))
(assert (hence_77 false_77 true_77 false_77))
(assert (hence_77 true_77 false_77 true_77))
(assert (hence_77 true_77 true_77 true_77))
(assert (not_77 true_77 false_77))
(assert (not_77 false_77 true_77))
(declare-fun diseqInt (Int Int) Bool)
(declare-fun projS_145 (Int Int) Bool)
(declare-fun isZ_149 (Int) Bool)
(declare-fun isS_149 (Int) Bool)
(assert (forall ((x_4051 Int))
	(projS_145 x_4051 (S_149 x_4051))))
(assert (isZ_149 Z_418))
(assert (forall ((x_4053 Int))
	(isS_149 (S_149 x_4053))))
(assert (forall ((x_4054 Int))
	(diseqInt Z_418 (S_149 x_4054))))
(assert (forall ((x_4055 Int))
	(diseqInt (S_149 x_4055) Z_418)))
(assert (forall ((x_4056 Int) (x_4057 Int))
	(=> (diseqInt x_4056 x_4057) (diseqInt (S_149 x_4056) (S_149 x_4057)))))
(declare-datatypes ((list_65 0)) (((nil_65) (cons_65 (head_130 Int) (tail_130 list_65)))))
(declare-fun diseqlist_65 (list_65 list_65) Bool)
(declare-fun head_131 (Int list_65) Bool)
(declare-fun tail_131 (list_65 list_65) Bool)
(declare-fun isnil_65 (list_65) Bool)
(declare-fun iscons_65 (list_65) Bool)
(assert (forall ((x_4059 Int) (x_4060 list_65))
	(head_131 x_4059 (cons_65 x_4059 x_4060))))
(assert (forall ((x_4059 Int) (x_4060 list_65))
	(tail_131 x_4060 (cons_65 x_4059 x_4060))))
(assert (isnil_65 nil_65))
(assert (forall ((x_4062 Int) (x_4063 list_65))
	(iscons_65 (cons_65 x_4062 x_4063))))
(assert (forall ((x_4064 Int) (x_4065 list_65))
	(diseqlist_65 nil_65 (cons_65 x_4064 x_4065))))
(assert (forall ((x_4066 Int) (x_4067 list_65))
	(diseqlist_65 (cons_65 x_4066 x_4067) nil_65)))
(assert (forall ((x_4068 Int) (x_4069 list_65) (x_4070 Int) (x_4071 list_65))
	(=> (diseqInt x_4068 x_4070) (diseqlist_65 (cons_65 x_4068 x_4069) (cons_65 x_4070 x_4071)))))
(assert (forall ((x_4068 Int) (x_4069 list_65) (x_4070 Int) (x_4071 list_65))
	(=> (diseqlist_65 x_4069 x_4071) (diseqlist_65 (cons_65 x_4068 x_4069) (cons_65 x_4070 x_4071)))))
(declare-fun x_4029 (Bool_77 Int Int) Bool)
(assert (forall ((x_4033 Bool_77) (y_331 Int) (x_4031 Int))
	(=> (x_4029 x_4033 x_4031 y_331) (x_4029 x_4033 (S_149 x_4031) (S_149 y_331)))))
(assert (forall ((x_4031 Int))
	(x_4029 false_77 (S_149 x_4031) Z_418)))
(assert (forall ((z_419 Int))
	(x_4029 false_77 Z_418 (S_149 z_419))))
(assert (x_4029 true_77 Z_418 Z_418))
(declare-fun count_9 (Int Int list_65) Bool)
(assert (forall ((x_4040 Int) (z_420 Int) (ys_29 list_65) (x_4032 Int))
	(=> (and (count_9 x_4040 x_4032 ys_29) (x_4029 true_77 x_4032 z_420)) (count_9 (S_149 x_4040) x_4032 (cons_65 z_420 ys_29)))))
(assert (forall ((x_4042 Int) (z_420 Int) (ys_29 list_65) (x_4032 Int))
	(=> (and (count_9 x_4042 x_4032 ys_29) (x_4029 false_77 x_4032 z_420)) (count_9 x_4042 x_4032 (cons_65 z_420 ys_29)))))
(assert (forall ((x_4032 Int))
	(count_9 Z_418 x_4032 nil_65)))
(assert (forall ((x_4045 Int) (x_4046 Int) (n_31 Int) (xs_122 list_65))
	(=> (and true (diseqInt (S_149 x_4045) x_4046) (count_9 x_4045 n_31 xs_122) (count_9 x_4046 n_31 (cons_65 n_31 xs_122))) false)))
(check-sat)
